120
150
34
42
89
26
76
74
61
48
61
24
78
32
74
100
99
74
33
71
91
49
29
59
22
25
88
54
96
83
43
26
59
59
32
29
54
33
71
59
34
78
28
44
68
24
49
37
76
90
69
33
59
78
96
49
79
89
100
37
76
47
99
37
91
74
49
92
77
49
59
30
44
95
95
24
31
69
92
43
37
44
24
32
54
29
96
61
88
38
53
78
78
59
43
68
73
77
55
56
61
47
71
96
42
100
96
39
79
43
54
76
49
74
28
49
29
100
20
26
78
68
